35 35
22
3 3   32 0 
3 4   32 12
3 5   0 30
3 6   3 7 
3 7   0 23
3 8   0 3 
3 9   32 3 
10 3   0 0 
3 12  0 11
3 19  32 16
3 22  3 13
4 3   6 7 
4 4   10 31
4 5   10 0 
4 6   10 5 
7 4   3 3 
4 8   6 27
4 12  28 0 
4 17  6 10
4 20  10 11
4 23  28 12
14 35  14 0 
